; benchmark generated from python API
(set-info :status unknown)
(declare-fun cell_1_1 () Int)
(declare-fun cell_1_7 () Int)
(declare-fun cell_2_4 () Int)
(declare-fun cell_2_5 () Int)
(declare-fun cell_3_1 () Int)
(declare-fun cell_3_8 () Int)
(declare-fun cell_4_3 () Int)
(declare-fun cell_4_9 () Int)
(declare-fun cell_5_2 () Int)
(declare-fun cell_5_6 () Int)
(declare-fun cell_6_6 () Int)
(declare-fun cell_6_9 () Int)
(declare-fun cell_7_2 () Int)
(declare-fun cell_7_3 () Int)
(declare-fun cell_8_5 () Int)
(declare-fun cell_8_8 () Int)
(declare-fun cell_9_4 () Int)
(declare-fun cell_2_1 () Int)
(declare-fun cell_4_1 () Int)
(declare-fun cell_5_1 () Int)
(declare-fun cell_6_1 () Int)
(declare-fun cell_7_1 () Int)
(declare-fun cell_8_1 () Int)
(declare-fun cell_9_1 () Int)
(declare-fun cell_1_2 () Int)
(declare-fun cell_2_2 () Int)
(declare-fun cell_3_2 () Int)
(declare-fun cell_4_2 () Int)
(declare-fun cell_6_2 () Int)
(declare-fun cell_8_2 () Int)
(declare-fun cell_9_2 () Int)
(declare-fun cell_1_3 () Int)
(declare-fun cell_2_3 () Int)
(declare-fun cell_3_3 () Int)
(declare-fun cell_5_3 () Int)
(declare-fun cell_6_3 () Int)
(declare-fun cell_8_3 () Int)
(declare-fun cell_9_3 () Int)
(declare-fun cell_1_4 () Int)
(declare-fun cell_3_4 () Int)
(declare-fun cell_4_4 () Int)
(declare-fun cell_5_4 () Int)
(declare-fun cell_6_4 () Int)
(declare-fun cell_7_4 () Int)
(declare-fun cell_8_4 () Int)
(declare-fun cell_1_5 () Int)
(declare-fun cell_3_5 () Int)
(declare-fun cell_4_5 () Int)
(declare-fun cell_5_5 () Int)
(declare-fun cell_6_5 () Int)
(declare-fun cell_7_5 () Int)
(declare-fun cell_9_5 () Int)
(declare-fun cell_1_6 () Int)
(declare-fun cell_2_6 () Int)
(declare-fun cell_3_6 () Int)
(declare-fun cell_4_6 () Int)
(declare-fun cell_7_6 () Int)
(declare-fun cell_8_6 () Int)
(declare-fun cell_9_6 () Int)
(declare-fun cell_2_7 () Int)
(declare-fun cell_3_7 () Int)
(declare-fun cell_4_7 () Int)
(declare-fun cell_5_7 () Int)
(declare-fun cell_6_7 () Int)
(declare-fun cell_7_7 () Int)
(declare-fun cell_8_7 () Int)
(declare-fun cell_9_7 () Int)
(declare-fun cell_1_8 () Int)
(declare-fun cell_2_8 () Int)
(declare-fun cell_4_8 () Int)
(declare-fun cell_5_8 () Int)
(declare-fun cell_6_8 () Int)
(declare-fun cell_7_8 () Int)
(declare-fun cell_9_8 () Int)
(declare-fun cell_1_9 () Int)
(declare-fun cell_2_9 () Int)
(declare-fun cell_3_9 () Int)
(declare-fun cell_5_9 () Int)
(declare-fun cell_7_9 () Int)
(declare-fun cell_8_9 () Int)
(declare-fun cell_9_9 () Int)
(assert
 (= cell_1_1 2))
(assert
 (= cell_1_7 1))
(assert
 (= cell_2_4 2))
(assert
 (= cell_2_5 1))
(assert
 (= cell_3_1 1))
(assert
 (= cell_3_8 2))
(assert
 (= cell_4_3 1))
(assert
 (= cell_4_9 2))
(assert
 (= cell_5_2 2))
(assert
 (= cell_5_6 1))
(assert
 (= cell_6_6 2))
(assert
 (= cell_6_9 1))
(assert
 (= cell_7_2 1))
(assert
 (= cell_7_3 2))
(assert
 (= cell_8_5 2))
(assert
 (= cell_8_8 1))
(assert
 (= cell_9_4 1))
(assert
 (let (($x24 (= cell_1_1 2)))
 (or (= cell_1_1 1) $x24 (= cell_1_1 3) (= cell_1_1 4) (= cell_1_1 5) (= cell_1_1 6) (= cell_1_1 7) (= cell_1_1 8) (= cell_1_1 9))))
(assert
 (let (($x902 (= cell_2_1 9)))
 (let (($x901 (= cell_2_1 8)))
 (let (($x900 (= cell_2_1 7)))
 (let (($x899 (= cell_2_1 6)))
 (let (($x898 (= cell_2_1 5)))
 (let (($x937 (= cell_2_1 4)))
 (let (($x896 (= cell_2_1 3)))
 (let (($x895 (= cell_2_1 2)))
 (let (($x894 (= cell_2_1 1)))
 (or $x894 $x895 $x896 $x937 $x898 $x899 $x900 $x901 $x902)))))))))))
(assert
 (let (($x924 (= cell_3_1 1)))
 (or $x924 (= cell_3_1 2) (= cell_3_1 3) (= cell_3_1 4) (= cell_3_1 5) (= cell_3_1 6) (= cell_3_1 7) (= cell_3_1 8) (= cell_3_1 9))))
(assert
 (let (($x882 (= cell_4_1 9)))
 (let (($x881 (= cell_4_1 8)))
 (let (($x880 (= cell_4_1 7)))
 (let (($x879 (= cell_4_1 6)))
 (let (($x878 (= cell_4_1 5)))
 (let (($x877 (= cell_4_1 4)))
 (let (($x876 (= cell_4_1 3)))
 (let (($x875 (= cell_4_1 2)))
 (let (($x152 (= cell_4_1 1)))
 (or $x152 $x875 $x876 $x877 $x878 $x879 $x880 $x881 $x882)))))))))))
(assert
 (let (($x873 (= cell_5_1 9)))
 (let (($x872 (= cell_5_1 8)))
 (let (($x871 (= cell_5_1 7)))
 (let (($x870 (= cell_5_1 6)))
 (let (($x117 (= cell_5_1 5)))
 (let (($x869 (= cell_5_1 4)))
 (let (($x868 (= cell_5_1 3)))
 (let (($x867 (= cell_5_1 2)))
 (let (($x866 (= cell_5_1 1)))
 (or $x866 $x867 $x868 $x869 $x117 $x870 $x871 $x872 $x873)))))))))))
(assert
 (let (($x864 (= cell_6_1 9)))
 (let (($x863 (= cell_6_1 8)))
 (let (($x862 (= cell_6_1 7)))
 (let (($x861 (= cell_6_1 6)))
 (let (($x860 (= cell_6_1 5)))
 (let (($x859 (= cell_6_1 4)))
 (let (($x858 (= cell_6_1 3)))
 (let (($x131 (= cell_6_1 2)))
 (let (($x857 (= cell_6_1 1)))
 (or $x857 $x131 $x858 $x859 $x860 $x861 $x862 $x863 $x864)))))))))))
(assert
 (let (($x855 (= cell_7_1 9)))
 (let (($x854 (= cell_7_1 8)))
 (let (($x853 (= cell_7_1 7)))
 (let (($x852 (= cell_7_1 6)))
 (let (($x851 (= cell_7_1 5)))
 (let (($x850 (= cell_7_1 4)))
 (let (($x849 (= cell_7_1 3)))
 (let (($x848 (= cell_7_1 2)))
 (let (($x847 (= cell_7_1 1)))
 (or $x847 $x848 $x849 $x850 $x851 $x852 $x853 $x854 $x855)))))))))))
(assert
 (let (($x845 (= cell_8_1 9)))
 (let (($x844 (= cell_8_1 8)))
 (let (($x843 (= cell_8_1 7)))
 (let (($x842 (= cell_8_1 6)))
 (let (($x841 (= cell_8_1 5)))
 (let (($x840 (= cell_8_1 4)))
 (let (($x839 (= cell_8_1 3)))
 (let (($x838 (= cell_8_1 2)))
 (let (($x837 (= cell_8_1 1)))
 (or $x837 $x838 $x839 $x840 $x841 $x842 $x843 $x844 $x845)))))))))))
(assert
 (let (($x835 (= cell_9_1 9)))
 (let (($x834 (= cell_9_1 8)))
 (let (($x833 (= cell_9_1 7)))
 (let (($x832 (= cell_9_1 6)))
 (let (($x831 (= cell_9_1 5)))
 (let (($x830 (= cell_9_1 4)))
 (let (($x829 (= cell_9_1 3)))
 (let (($x828 (= cell_9_1 2)))
 (let (($x827 (= cell_9_1 1)))
 (or $x827 $x828 $x829 $x830 $x831 $x832 $x833 $x834 $x835)))))))))))
(assert
 (let (($x825 (= cell_1_2 9)))
 (let (($x824 (= cell_1_2 8)))
 (let (($x823 (= cell_1_2 7)))
 (let (($x822 (= cell_1_2 6)))
 (let (($x821 (= cell_1_2 5)))
 (let (($x820 (= cell_1_2 4)))
 (let (($x125 (= cell_1_2 3)))
 (let (($x819 (= cell_1_2 2)))
 (let (($x818 (= cell_1_2 1)))
 (or $x818 $x819 $x125 $x820 $x821 $x822 $x823 $x824 $x825)))))))))))
(assert
 (let (($x816 (= cell_2_2 9)))
 (let (($x815 (= cell_2_2 8)))
 (let (($x814 (= cell_2_2 7)))
 (let (($x813 (= cell_2_2 6)))
 (let (($x812 (= cell_2_2 5)))
 (let (($x811 (= cell_2_2 4)))
 (let (($x810 (= cell_2_2 3)))
 (let (($x809 (= cell_2_2 2)))
 (let (($x158 (= cell_2_2 1)))
 (or $x158 $x809 $x810 $x811 $x812 $x813 $x814 $x815 $x816)))))))))))
(assert
 (let (($x807 (= cell_3_2 9)))
 (let (($x806 (= cell_3_2 8)))
 (let (($x805 (= cell_3_2 7)))
 (let (($x804 (= cell_3_2 6)))
 (let (($x803 (= cell_3_2 5)))
 (let (($x802 (= cell_3_2 4)))
 (let (($x801 (= cell_3_2 3)))
 (let (($x800 (= cell_3_2 2)))
 (let (($x798 (= cell_3_2 1)))
 (or $x798 $x800 $x801 $x802 $x803 $x804 $x805 $x806 $x807)))))))))))
(assert
 (let (($x796 (= cell_4_2 9)))
 (let (($x795 (= cell_4_2 8)))
 (let (($x794 (= cell_4_2 7)))
 (let (($x793 (= cell_4_2 6)))
 (let (($x792 (= cell_4_2 5)))
 (let (($x791 (= cell_4_2 4)))
 (let (($x933 (= cell_4_2 3)))
 (let (($x790 (= cell_4_2 2)))
 (let (($x788 (= cell_4_2 1)))
 (or $x788 $x790 $x933 $x791 $x792 $x793 $x794 $x795 $x796)))))))))))
(assert
 (let (($x920 (= cell_5_2 2)))
 (or (= cell_5_2 1) $x920 (= cell_5_2 3) (= cell_5_2 4) (= cell_5_2 5) (= cell_5_2 6) (= cell_5_2 7) (= cell_5_2 8) (= cell_5_2 9))))
(assert
 (let (($x774 (= cell_6_2 9)))
 (let (($x773 (= cell_6_2 8)))
 (let (($x772 (= cell_6_2 7)))
 (let (($x115 (= cell_6_2 6)))
 (let (($x771 (= cell_6_2 5)))
 (let (($x789 (= cell_6_2 4)))
 (let (($x929 (= cell_6_2 3)))
 (let (($x768 (= cell_6_2 2)))
 (let (($x787 (= cell_6_2 1)))
 (or $x787 $x768 $x929 $x789 $x771 $x115 $x772 $x773 $x774)))))))))))
(assert
 (let (($x916 (= cell_7_2 1)))
 (or $x916 (= cell_7_2 2) (= cell_7_2 3) (= cell_7_2 4) (= cell_7_2 5) (= cell_7_2 6) (= cell_7_2 7) (= cell_7_2 8) (= cell_7_2 9))))
(assert
 (let (($x755 (= cell_8_2 9)))
 (let (($x754 (= cell_8_2 8)))
 (let (($x753 (= cell_8_2 7)))
 (let (($x752 (= cell_8_2 6)))
 (let (($x751 (= cell_8_2 5)))
 (let (($x770 (= cell_8_2 4)))
 (let (($x769 (= cell_8_2 3)))
 (let (($x767 (= cell_8_2 2)))
 (let (($x766 (= cell_8_2 1)))
 (or $x766 $x767 $x769 $x770 $x751 $x752 $x753 $x754 $x755)))))))))))
(assert
 (let (($x746 (= cell_9_2 9)))
 (let (($x745 (= cell_9_2 8)))
 (let (($x744 (= cell_9_2 7)))
 (let (($x743 (= cell_9_2 6)))
 (let (($x741 (= cell_9_2 5)))
 (let (($x760 (= cell_9_2 4)))
 (let (($x759 (= cell_9_2 3)))
 (let (($x758 (= cell_9_2 2)))
 (let (($x757 (= cell_9_2 1)))
 (or $x757 $x758 $x759 $x760 $x741 $x743 $x744 $x745 $x746)))))))))))
(assert
 (let (($x737 (= cell_1_3 9)))
 (let (($x736 (= cell_1_3 8)))
 (let (($x735 (= cell_1_3 7)))
 (let (($x734 (= cell_1_3 6)))
 (let (($x733 (= cell_1_3 5)))
 (let (($x732 (= cell_1_3 4)))
 (let (($x750 (= cell_1_3 3)))
 (let (($x749 (= cell_1_3 2)))
 (let (($x748 (= cell_1_3 1)))
 (or $x748 $x749 $x750 $x732 $x733 $x734 $x735 $x736 $x737)))))))))))
(assert
 (let (($x727 (= cell_2_3 9)))
 (let (($x726 (= cell_2_3 8)))
 (let (($x725 (= cell_2_3 7)))
 (let (($x724 (= cell_2_3 6)))
 (let (($x723 (= cell_2_3 5)))
 (let (($x722 (= cell_2_3 4)))
 (let (($x721 (= cell_2_3 3)))
 (let (($x740 (= cell_2_3 2)))
 (let (($x739 (= cell_2_3 1)))
 (or $x739 $x740 $x721 $x722 $x723 $x724 $x725 $x726 $x727)))))))))))
(assert
 (let (($x716 (= cell_3_3 9)))
 (let (($x715 (= cell_3_3 8)))
 (let (($x714 (= cell_3_3 7)))
 (let (($x713 (= cell_3_3 6)))
 (let (($x712 (= cell_3_3 5)))
 (let (($x711 (= cell_3_3 4)))
 (let (($x730 (= cell_3_3 3)))
 (let (($x935 (= cell_3_3 2)))
 (let (($x729 (= cell_3_3 1)))
 (or $x729 $x935 $x730 $x711 $x712 $x713 $x714 $x715 $x716)))))))))))
(assert
 (let (($x922 (= cell_4_3 1)))
 (or $x922 (= cell_4_3 2) (= cell_4_3 3) (= cell_4_3 4) (= cell_4_3 5) (= cell_4_3 6) (= cell_4_3 7) (= cell_4_3 8) (= cell_4_3 9))))
(assert
 (let (($x695 (= cell_5_3 9)))
 (let (($x694 (= cell_5_3 8)))
 (let (($x693 (= cell_5_3 7)))
 (let (($x692 (= cell_5_3 6)))
 (let (($x691 (= cell_5_3 5)))
 (let (($x710 (= cell_5_3 4)))
 (let (($x709 (= cell_5_3 3)))
 (let (($x708 (= cell_5_3 2)))
 (let (($x707 (= cell_5_3 1)))
 (or $x707 $x708 $x709 $x710 $x691 $x692 $x693 $x694 $x695)))))))))))
(assert
 (let (($x684 (= cell_6_3 9)))
 (let (($x683 (= cell_6_3 8)))
 (let (($x682 (= cell_6_3 7)))
 (let (($x681 (= cell_6_3 6)))
 (let (($x700 (= cell_6_3 5)))
 (let (($x928 (= cell_6_3 4)))
 (let (($x699 (= cell_6_3 3)))
 (let (($x698 (= cell_6_3 2)))
 (let (($x697 (= cell_6_3 1)))
 (or $x697 $x698 $x699 $x928 $x700 $x681 $x682 $x683 $x684)))))))))))
(assert
 (let (($x915 (= cell_7_3 2)))
 (or (= cell_7_3 1) $x915 (= cell_7_3 3) (= cell_7_3 4) (= cell_7_3 5) (= cell_7_3 6) (= cell_7_3 7) (= cell_7_3 8) (= cell_7_3 9))))
(assert
 (let (($x663 (= cell_8_3 9)))
 (let (($x662 (= cell_8_3 8)))
 (let (($x111 (= cell_8_3 7)))
 (let (($x680 (= cell_8_3 6)))
 (let (($x679 (= cell_8_3 5)))
 (let (($x678 (= cell_8_3 4)))
 (let (($x677 (= cell_8_3 3)))
 (let (($x676 (= cell_8_3 2)))
 (let (($x675 (= cell_8_3 1)))
 (or $x675 $x676 $x677 $x678 $x679 $x680 $x111 $x662 $x663)))))))))))
(assert
 (let (($x654 (= cell_9_3 9)))
 (let (($x653 (= cell_9_3 8)))
 (let (($x652 (= cell_9_3 7)))
 (let (($x670 (= cell_9_3 6)))
 (let (($x669 (= cell_9_3 5)))
 (let (($x142 (= cell_9_3 4)))
 (let (($x667 (= cell_9_3 3)))
 (let (($x666 (= cell_9_3 2)))
 (let (($x665 (= cell_9_3 1)))
 (or $x665 $x666 $x667 $x142 $x669 $x670 $x652 $x653 $x654)))))))))))
(assert
 (let (($x644 (= cell_1_4 9)))
 (let (($x643 (= cell_1_4 8)))
 (let (($x642 (= cell_1_4 7)))
 (let (($x661 (= cell_1_4 6)))
 (let (($x660 (= cell_1_4 5)))
 (let (($x939 (= cell_1_4 4)))
 (let (($x658 (= cell_1_4 3)))
 (let (($x657 (= cell_1_4 2)))
 (let (($x656 (= cell_1_4 1)))
 (or $x656 $x657 $x658 $x939 $x660 $x661 $x642 $x643 $x644)))))))))))
(assert
 (let (($x926 (= cell_2_4 2)))
 (or (= cell_2_4 1) $x926 (= cell_2_4 3) (= cell_2_4 4) (= cell_2_4 5) (= cell_2_4 6) (= cell_2_4 7) (= cell_2_4 8) (= cell_2_4 9))))
(assert
 (let (($x120 (= cell_3_4 9)))
 (let (($x623 (= cell_3_4 8)))
 (let (($x641 (= cell_3_4 7)))
 (let (($x640 (= cell_3_4 6)))
 (let (($x639 (= cell_3_4 5)))
 (let (($x659 (= cell_3_4 4)))
 (let (($x637 (= cell_3_4 3)))
 (let (($x636 (= cell_3_4 2)))
 (let (($x635 (= cell_3_4 1)))
 (or $x635 $x636 $x637 $x659 $x639 $x640 $x641 $x623 $x120)))))))))))
(assert
 (let (($x614 (= cell_4_4 9)))
 (let (($x119 (= cell_4_4 8)))
 (let (($x631 (= cell_4_4 7)))
 (let (($x127 (= cell_4_4 6)))
 (let (($x630 (= cell_4_4 5)))
 (let (($x648 (= cell_4_4 4)))
 (let (($x627 (= cell_4_4 3)))
 (let (($x626 (= cell_4_4 2)))
 (let (($x625 (= cell_4_4 1)))
 (or $x625 $x626 $x627 $x648 $x630 $x127 $x631 $x119 $x614)))))))))))
(assert
 (let (($x606 (= cell_5_4 9)))
 (let (($x605 (= cell_5_4 8)))
 (let (($x604 (= cell_5_4 7)))
 (let (($x622 (= cell_5_4 6)))
 (let (($x91 (= cell_5_4 5)))
 (let (($x638 (= cell_5_4 4)))
 (let (($x618 (= cell_5_4 3)))
 (let (($x617 (= cell_5_4 2)))
 (let (($x616 (= cell_5_4 1)))
 (or $x616 $x617 $x618 $x638 $x91 $x622 $x604 $x605 $x606)))))))))))
(assert
 (let (($x597 (= cell_6_4 9)))
 (let (($x596 (= cell_6_4 8)))
 (let (($x595 (= cell_6_4 7)))
 (let (($x594 (= cell_6_4 6)))
 (let (($x613 (= cell_6_4 5)))
 (let (($x629 (= cell_6_4 4)))
 (let (($x628 (= cell_6_4 3)))
 (let (($x609 (= cell_6_4 2)))
 (let (($x608 (= cell_6_4 1)))
 (or $x608 $x609 $x628 $x629 $x613 $x594 $x595 $x596 $x597)))))))))))
(assert
 (let (($x587 (= cell_7_4 9)))
 (let (($x586 (= cell_7_4 8)))
 (let (($x585 (= cell_7_4 7)))
 (let (($x584 (= cell_7_4 6)))
 (let (($x603 (= cell_7_4 5)))
 (let (($x621 (= cell_7_4 4)))
 (let (($x620 (= cell_7_4 3)))
 (let (($x619 (= cell_7_4 2)))
 (let (($x599 (= cell_7_4 1)))
 (or $x599 $x619 $x620 $x621 $x603 $x584 $x585 $x586 $x587)))))))))))
(assert
 (let (($x576 (= cell_8_4 9)))
 (let (($x575 (= cell_8_4 8)))
 (let (($x574 (= cell_8_4 7)))
 (let (($x593 (= cell_8_4 6)))
 (let (($x592 (= cell_8_4 5)))
 (let (($x612 (= cell_8_4 4)))
 (let (($x611 (= cell_8_4 3)))
 (let (($x610 (= cell_8_4 2)))
 (let (($x589 (= cell_8_4 1)))
 (or $x589 $x610 $x611 $x612 $x592 $x593 $x574 $x575 $x576)))))))))))
(assert
 (let (($x904 (= cell_9_4 1)))
 (or $x904 (= cell_9_4 2) (= cell_9_4 3) (= cell_9_4 4) (= cell_9_4 5) (= cell_9_4 6) (= cell_9_4 7) (= cell_9_4 8) (= cell_9_4 9))))
(assert
 (let (($x555 (= cell_1_5 9)))
 (let (($x573 (= cell_1_5 8)))
 (let (($x572 (= cell_1_5 7)))
 (let (($x571 (= cell_1_5 6)))
 (let (($x591 (= cell_1_5 5)))
 (let (($x590 (= cell_1_5 4)))
 (let (($x918 (= cell_1_5 3)))
 (let (($x568 (= cell_1_5 2)))
 (let (($x567 (= cell_1_5 1)))
 (or $x567 $x568 $x918 $x590 $x591 $x571 $x572 $x573 $x555)))))))))))
(assert
 (let (($x925 (= cell_2_5 1)))
 (or $x925 (= cell_2_5 2) (= cell_2_5 3) (= cell_2_5 4) (= cell_2_5 5) (= cell_2_5 6) (= cell_2_5 7) (= cell_2_5 8) (= cell_2_5 9))))
(assert
 (let (($x535 (= cell_3_5 9)))
 (let (($x554 (= cell_3_5 8)))
 (let (($x553 (= cell_3_5 7)))
 (let (($x570 (= cell_3_5 6)))
 (let (($x569 (= cell_3_5 5)))
 (let (($x938 (= cell_3_5 4)))
 (let (($x548 (= cell_3_5 3)))
 (let (($x547 (= cell_3_5 2)))
 (let (($x546 (= cell_3_5 1)))
 (or $x546 $x547 $x548 $x938 $x569 $x570 $x553 $x554 $x535)))))))))))
(assert
 (let (($x525 (= cell_4_5 9)))
 (let (($x544 (= cell_4_5 8)))
 (let (($x543 (= cell_4_5 7)))
 (let (($x561 (= cell_4_5 6)))
 (let (($x560 (= cell_4_5 5)))
 (let (($x559 (= cell_4_5 4)))
 (let (($x558 (= cell_4_5 3)))
 (let (($x538 (= cell_4_5 2)))
 (let (($x537 (= cell_4_5 1)))
 (or $x537 $x538 $x558 $x559 $x560 $x561 $x543 $x544 $x525)))))))))))
(assert
 (let (($x515 (= cell_5_5 9)))
 (let (($x534 (= cell_5_5 8)))
 (let (($x533 (= cell_5_5 7)))
 (let (($x552 (= cell_5_5 6)))
 (let (($x551 (= cell_5_5 5)))
 (let (($x550 (= cell_5_5 4)))
 (let (($x549 (= cell_5_5 3)))
 (let (($x528 (= cell_5_5 2)))
 (let (($x527 (= cell_5_5 1)))
 (or $x527 $x528 $x549 $x550 $x551 $x552 $x533 $x534 $x515)))))))))))
(assert
 (let (($x505 (= cell_6_5 9)))
 (let (($x524 (= cell_6_5 8)))
 (let (($x523 (= cell_6_5 7)))
 (let (($x542 (= cell_6_5 6)))
 (let (($x541 (= cell_6_5 5)))
 (let (($x540 (= cell_6_5 4)))
 (let (($x539 (= cell_6_5 3)))
 (let (($x518 (= cell_6_5 2)))
 (let (($x517 (= cell_6_5 1)))
 (or $x517 $x518 $x539 $x540 $x541 $x542 $x523 $x524 $x505)))))))))))
(assert
 (let (($x514 (= cell_7_5 9)))
 (let (($x513 (= cell_7_5 8)))
 (let (($x512 (= cell_7_5 7)))
 (let (($x532 (= cell_7_5 6)))
 (let (($x531 (= cell_7_5 5)))
 (let (($x530 (= cell_7_5 4)))
 (let (($x529 (= cell_7_5 3)))
 (let (($x508 (= cell_7_5 2)))
 (let (($x507 (= cell_7_5 1)))
 (or $x507 $x508 $x529 $x530 $x531 $x532 $x512 $x513 $x514)))))))))))
(assert
 (let (($x914 (= cell_8_5 2)))
 (or (= cell_8_5 1) $x914 (= cell_8_5 3) (= cell_8_5 4) (= cell_8_5 5) (= cell_8_5 6) (= cell_8_5 7) (= cell_8_5 8) (= cell_8_5 9))))
(assert
 (let (($x487 (= cell_9_5 2)))
 (let (($x486 (= cell_9_5 1)))
 (or $x486 $x487 (= cell_9_5 3) (= cell_9_5 4) (= cell_9_5 5) (= cell_9_5 6) (= cell_9_5 7) (= cell_9_5 8) (= cell_9_5 9)))))
(assert
 (let (($x485 (= cell_1_6 9)))
 (let (($x159 (= cell_1_6 8)))
 (let (($x502 (= cell_1_6 7)))
 (let (($x501 (= cell_1_6 6)))
 (let (($x500 (= cell_1_6 5)))
 (let (($x499 (= cell_1_6 4)))
 (let (($x498 (= cell_1_6 3)))
 (let (($x478 (= cell_1_6 2)))
 (let (($x477 (= cell_1_6 1)))
 (or $x477 $x478 $x498 $x499 $x500 $x501 $x502 $x159 $x485)))))))))))
(assert
 (let (($x457 (= cell_2_6 9)))
 (let (($x476 (= cell_2_6 8)))
 (let (($x493 (= cell_2_6 7)))
 (let (($x492 (= cell_2_6 6)))
 (let (($x491 (= cell_2_6 5)))
 (let (($x490 (= cell_2_6 4)))
 (let (($x489 (= cell_2_6 3)))
 (let (($x469 (= cell_2_6 2)))
 (let (($x468 (= cell_2_6 1)))
 (or $x468 $x469 $x489 $x490 $x491 $x492 $x493 $x476 $x457)))))))))))
(assert
 (let (($x447 (= cell_3_6 9)))
 (let (($x466 (= cell_3_6 8)))
 (let (($x484 (= cell_3_6 7)))
 (let (($x483 (= cell_3_6 6)))
 (let (($x482 (= cell_3_6 5)))
 (let (($x481 (= cell_3_6 4)))
 (let (($x480 (= cell_3_6 3)))
 (let (($x479 (= cell_3_6 2)))
 (let (($x459 (= cell_3_6 1)))
 (or $x459 $x479 $x480 $x481 $x482 $x483 $x484 $x466 $x447)))))))))))
(assert
 (let (($x456 (= cell_4_6 9)))
 (let (($x455 (= cell_4_6 8)))
 (let (($x475 (= cell_4_6 7)))
 (let (($x474 (= cell_4_6 6)))
 (let (($x473 (= cell_4_6 5)))
 (let (($x472 (= cell_4_6 4)))
 (let (($x471 (= cell_4_6 3)))
 (let (($x470 (= cell_4_6 2)))
 (let (($x449 (= cell_4_6 1)))
 (or $x449 $x470 $x471 $x472 $x473 $x474 $x475 $x455 $x456)))))))))))
(assert
 (let (($x15 (= cell_5_6 1)))
 (or $x15 (= cell_5_6 2) (= cell_5_6 3) (= cell_5_6 4) (= cell_5_6 5) (= cell_5_6 6) (= cell_5_6 7) (= cell_5_6 8) (= cell_5_6 9))))
(assert
 (let (($x919 (= cell_6_6 2)))
 (or (= cell_6_6 1) $x919 (= cell_6_6 3) (= cell_6_6 4) (= cell_6_6 5) (= cell_6_6 6) (= cell_6_6 7) (= cell_6_6 8) (= cell_6_6 9))))
(assert
 (let (($x443 (= cell_7_6 9)))
 (let (($x442 (= cell_7_6 8)))
 (let (($x441 (= cell_7_6 7)))
 (let (($x440 (= cell_7_6 6)))
 (let (($x931 (= cell_7_6 5)))
 (let (($x439 (= cell_7_6 4)))
 (let (($x417 (= cell_7_6 3)))
 (let (($x436 (= cell_7_6 2)))
 (let (($x435 (= cell_7_6 1)))
 (or $x435 $x436 $x417 $x439 $x931 $x440 $x441 $x442 $x443)))))))))))
(assert
 (let (($x433 (= cell_8_6 9)))
 (let (($x432 (= cell_8_6 8)))
 (let (($x431 (= cell_8_6 7)))
 (let (($x430 (= cell_8_6 6)))
 (let (($x429 (= cell_8_6 5)))
 (let (($x428 (= cell_8_6 4)))
 (let (($x408 (= cell_8_6 3)))
 (let (($x426 (= cell_8_6 2)))
 (let (($x425 (= cell_8_6 1)))
 (or $x425 $x426 $x408 $x428 $x429 $x430 $x431 $x432 $x433)))))))))))
(assert
 (let (($x416 (= cell_9_6 2)))
 (let (($x141 (= cell_9_6 1)))
 (or $x141 $x416 (= cell_9_6 3) (= cell_9_6 4) (= cell_9_6 5) (= cell_9_6 6) (= cell_9_6 7) (= cell_9_6 8) (= cell_9_6 9)))))
(assert
 (let (($x907 (= cell_1_7 1)))
 (or $x907 (= cell_1_7 2) (= cell_1_7 3) (= cell_1_7 4) (= cell_1_7 5) (= cell_1_7 6) (= cell_1_7 7) (= cell_1_7 8) (= cell_1_7 9))))
(assert
 (let (($x403 (= cell_2_7 9)))
 (let (($x402 (= cell_2_7 8)))
 (let (($x401 (= cell_2_7 7)))
 (let (($x400 (= cell_2_7 6)))
 (let (($x399 (= cell_2_7 5)))
 (let (($x940 (= cell_2_7 4)))
 (let (($x397 (= cell_2_7 3)))
 (let (($x396 (= cell_2_7 2)))
 (let (($x395 (= cell_2_7 1)))
 (or $x395 $x396 $x397 $x940 $x399 $x400 $x401 $x402 $x403)))))))))))
(assert
 (let (($x393 (= cell_3_7 9)))
 (let (($x392 (= cell_3_7 8)))
 (let (($x391 (= cell_3_7 7)))
 (let (($x390 (= cell_3_7 6)))
 (let (($x389 (= cell_3_7 5)))
 (let (($x388 (= cell_3_7 4)))
 (let (($x387 (= cell_3_7 3)))
 (let (($x386 (= cell_3_7 2)))
 (let (($x385 (= cell_3_7 1)))
 (or $x385 $x386 $x387 $x388 $x389 $x390 $x391 $x392 $x393)))))))))))
(assert
 (let (($x383 (= cell_4_7 9)))
 (let (($x382 (= cell_4_7 8)))
 (let (($x381 (= cell_4_7 7)))
 (let (($x380 (= cell_4_7 6)))
 (let (($x379 (= cell_4_7 5)))
 (let (($x378 (= cell_4_7 4)))
 (let (($x377 (= cell_4_7 3)))
 (let (($x150 (= cell_4_7 2)))
 (let (($x376 (= cell_4_7 1)))
 (or $x376 $x150 $x377 $x378 $x379 $x380 $x381 $x382 $x383)))))))))))
(assert
 (let (($x374 (= cell_5_7 9)))
 (let (($x373 (= cell_5_7 8)))
 (let (($x372 (= cell_5_7 7)))
 (let (($x371 (= cell_5_7 6)))
 (let (($x370 (= cell_5_7 5)))
 (let (($x123 (= cell_5_7 4)))
 (let (($x369 (= cell_5_7 3)))
 (let (($x368 (= cell_5_7 2)))
 (let (($x367 (= cell_5_7 1)))
 (or $x367 $x368 $x369 $x123 $x370 $x371 $x372 $x373 $x374)))))))))))
(assert
 (let (($x365 (= cell_6_7 9)))
 (let (($x364 (= cell_6_7 8)))
 (let (($x363 (= cell_6_7 7)))
 (let (($x362 (= cell_6_7 6)))
 (let (($x361 (= cell_6_7 5)))
 (let (($x360 (= cell_6_7 4)))
 (let (($x359 (= cell_6_7 3)))
 (let (($x358 (= cell_6_7 2)))
 (let (($x357 (= cell_6_7 1)))
 (or $x357 $x358 $x359 $x360 $x361 $x362 $x363 $x364 $x365)))))))))))
(assert
 (let (($x355 (= cell_7_7 9)))
 (let (($x354 (= cell_7_7 8)))
 (let (($x353 (= cell_7_7 7)))
 (let (($x352 (= cell_7_7 6)))
 (let (($x351 (= cell_7_7 5)))
 (let (($x350 (= cell_7_7 4)))
 (let (($x349 (= cell_7_7 3)))
 (let (($x348 (= cell_7_7 2)))
 (let (($x133 (= cell_7_7 1)))
 (or $x133 $x348 $x349 $x350 $x351 $x352 $x353 $x354 $x355)))))))))))
(assert
 (let (($x346 (= cell_8_7 9)))
 (let (($x345 (= cell_8_7 8)))
 (let (($x344 (= cell_8_7 7)))
 (let (($x343 (= cell_8_7 6)))
 (let (($x342 (= cell_8_7 5)))
 (let (($x341 (= cell_8_7 4)))
 (let (($x340 (= cell_8_7 3)))
 (let (($x116 (= cell_8_7 2)))
 (let (($x339 (= cell_8_7 1)))
 (or $x339 $x116 $x340 $x341 $x342 $x343 $x344 $x345 $x346)))))))))))
(assert
 (let (($x330 (= cell_9_7 2)))
 (let (($x329 (= cell_9_7 1)))
 (or $x329 $x330 (= cell_9_7 3) (= cell_9_7 4) (= cell_9_7 5) (= cell_9_7 6) (= cell_9_7 7) (= cell_9_7 8) (= cell_9_7 9)))))
(assert
 (let (($x327 (= cell_1_8 9)))
 (let (($x326 (= cell_1_8 8)))
 (let (($x325 (= cell_1_8 7)))
 (let (($x324 (= cell_1_8 6)))
 (let (($x323 (= cell_1_8 5)))
 (let (($x322 (= cell_1_8 4)))
 (let (($x320 (= cell_1_8 3)))
 (let (($x319 (= cell_1_8 2)))
 (let (($x318 (= cell_1_8 1)))
 (or $x318 $x319 $x320 $x322 $x323 $x324 $x325 $x326 $x327)))))))))))
(assert
 (let (($x316 (= cell_2_8 9)))
 (let (($x315 (= cell_2_8 8)))
 (let (($x314 (= cell_2_8 7)))
 (let (($x313 (= cell_2_8 6)))
 (let (($x312 (= cell_2_8 5)))
 (let (($x311 (= cell_2_8 4)))
 (let (($x310 (= cell_2_8 3)))
 (let (($x309 (= cell_2_8 2)))
 (let (($x308 (= cell_2_8 1)))
 (or $x308 $x309 $x310 $x311 $x312 $x313 $x314 $x315 $x316)))))))))))
(assert
 (let (($x923 (= cell_3_8 2)))
 (or (= cell_3_8 1) $x923 (= cell_3_8 3) (= cell_3_8 4) (= cell_3_8 5) (= cell_3_8 6) (= cell_3_8 7) (= cell_3_8 8) (= cell_3_8 9))))
(assert
 (let (($x294 (= cell_4_8 9)))
 (let (($x293 (= cell_4_8 8)))
 (let (($x292 (= cell_4_8 7)))
 (let (($x291 (= cell_4_8 6)))
 (let (($x936 (= cell_4_8 5)))
 (let (($x290 (= cell_4_8 4)))
 (let (($x288 (= cell_4_8 3)))
 (let (($x151 (= cell_4_8 2)))
 (let (($x307 (= cell_4_8 1)))
 (or $x307 $x151 $x288 $x290 $x936 $x291 $x292 $x293 $x294)))))))))))
(assert
 (let (($x285 (= cell_5_8 9)))
 (let (($x284 (= cell_5_8 8)))
 (let (($x283 (= cell_5_8 7)))
 (let (($x282 (= cell_5_8 6)))
 (let (($x281 (= cell_5_8 5)))
 (let (($x122 (= cell_5_8 4)))
 (let (($x299 (= cell_5_8 3)))
 (let (($x279 (= cell_5_8 2)))
 (let (($x296 (= cell_5_8 1)))
 (or $x296 $x279 $x299 $x122 $x281 $x282 $x283 $x284 $x285)))))))))))
(assert
 (let (($x276 (= cell_6_8 9)))
 (let (($x275 (= cell_6_8 8)))
 (let (($x274 (= cell_6_8 7)))
 (let (($x273 (= cell_6_8 6)))
 (let (($x272 (= cell_6_8 5)))
 (let (($x271 (= cell_6_8 4)))
 (let (($x129 (= cell_6_8 3)))
 (let (($x289 (= cell_6_8 2)))
 (let (($x287 (= cell_6_8 1)))
 (or $x287 $x289 $x129 $x271 $x272 $x273 $x274 $x275 $x276)))))))))))
(assert
 (let (($x267 (= cell_7_8 9)))
 (let (($x266 (= cell_7_8 8)))
 (let (($x265 (= cell_7_8 7)))
 (let (($x264 (= cell_7_8 6)))
 (let (($x263 (= cell_7_8 5)))
 (let (($x118 (= cell_7_8 4)))
 (let (($x262 (= cell_7_8 3)))
 (let (($x280 (= cell_7_8 2)))
 (let (($x278 (= cell_7_8 1)))
 (or $x278 $x280 $x262 $x118 $x263 $x264 $x265 $x266 $x267)))))))))))
(assert
 (let (($x903 (= cell_8_8 1)))
 (or $x903 (= cell_8_8 2) (= cell_8_8 3) (= cell_8_8 4) (= cell_8_8 5) (= cell_8_8 6) (= cell_8_8 7) (= cell_8_8 8) (= cell_8_8 9))))
(assert
 (let (($x260 (= cell_9_8 2)))
 (let (($x259 (= cell_9_8 1)))
 (or $x259 $x260 (= cell_9_8 3) (= cell_9_8 4) (= cell_9_8 5) (= cell_9_8 6) (= cell_9_8 7) (= cell_9_8 8) (= cell_9_8 9)))))
(assert
 (let (($x236 (= cell_1_9 9)))
 (let (($x235 (= cell_1_9 8)))
 (let (($x234 (= cell_1_9 7)))
 (let (($x233 (= cell_1_9 6)))
 (let (($x232 (= cell_1_9 5)))
 (let (($x251 (= cell_1_9 4)))
 (let (($x250 (= cell_1_9 3)))
 (let (($x249 (= cell_1_9 2)))
 (let (($x248 (= cell_1_9 1)))
 (or $x248 $x249 $x250 $x251 $x232 $x233 $x234 $x235 $x236)))))))))))
(assert
 (let (($x226 (= cell_2_9 9)))
 (let (($x225 (= cell_2_9 8)))
 (let (($x224 (= cell_2_9 7)))
 (let (($x223 (= cell_2_9 6)))
 (let (($x222 (= cell_2_9 5)))
 (let (($x241 (= cell_2_9 4)))
 (let (($x240 (= cell_2_9 3)))
 (let (($x239 (= cell_2_9 2)))
 (let (($x238 (= cell_2_9 1)))
 (or $x238 $x239 $x240 $x241 $x222 $x223 $x224 $x225 $x226)))))))))))
(assert
 (let (($x216 (= cell_3_9 9)))
 (let (($x215 (= cell_3_9 8)))
 (let (($x214 (= cell_3_9 7)))
 (let (($x213 (= cell_3_9 6)))
 (let (($x212 (= cell_3_9 5)))
 (let (($x231 (= cell_3_9 4)))
 (let (($x230 (= cell_3_9 3)))
 (let (($x229 (= cell_3_9 2)))
 (let (($x228 (= cell_3_9 1)))
 (or $x228 $x229 $x230 $x231 $x212 $x213 $x214 $x215 $x216)))))))))))
(assert
 (let (($x921 (= cell_4_9 2)))
 (or (= cell_4_9 1) $x921 (= cell_4_9 3) (= cell_4_9 4) (= cell_4_9 5) (= cell_4_9 6) (= cell_4_9 7) (= cell_4_9 8) (= cell_4_9 9))))
(assert
 (let (($x194 (= cell_5_9 9)))
 (let (($x193 (= cell_5_9 8)))
 (let (($x192 (= cell_5_9 7)))
 (let (($x211 (= cell_5_9 6)))
 (let (($x934 (= cell_5_9 5)))
 (let (($x210 (= cell_5_9 4)))
 (let (($x209 (= cell_5_9 3)))
 (let (($x208 (= cell_5_9 2)))
 (let (($x207 (= cell_5_9 1)))
 (or $x207 $x208 $x209 $x210 $x934 $x211 $x192 $x193 $x194)))))))))))
(assert
 (let (($x897 (= cell_6_9 1)))
 (or $x897 (= cell_6_9 2) (= cell_6_9 3) (= cell_6_9 4) (= cell_6_9 5) (= cell_6_9 6) (= cell_6_9 7) (= cell_6_9 8) (= cell_6_9 9))))
(assert
 (let (($x172 (= cell_7_9 9)))
 (let (($x191 (= cell_7_9 8)))
 (let (($x190 (= cell_7_9 7)))
 (let (($x189 (= cell_7_9 6)))
 (let (($x930 (= cell_7_9 5)))
 (let (($x188 (= cell_7_9 4)))
 (let (($x187 (= cell_7_9 3)))
 (let (($x186 (= cell_7_9 2)))
 (let (($x185 (= cell_7_9 1)))
 (or $x185 $x186 $x187 $x188 $x930 $x189 $x190 $x191 $x172)))))))))))
(assert
 (let (($x175 (= cell_8_9 2)))
 (let (($x174 (= cell_8_9 1)))
 (or $x174 $x175 (= cell_8_9 3) (= cell_8_9 4) (= cell_8_9 5) (= cell_8_9 6) (= cell_8_9 7) (= cell_8_9 8) (= cell_8_9 9)))))
(assert
 (let (($x165 (= cell_9_9 2)))
 (let (($x164 (= cell_9_9 1)))
 (or $x164 $x165 (= cell_9_9 3) (= cell_9_9 4) (= cell_9_9 5) (= cell_9_9 6) (= cell_9_9 7) (= cell_9_9 8) (= cell_9_9 9)))))
(assert
 (and (distinct cell_1_1 cell_1_2 cell_1_3 cell_1_4 cell_1_5 cell_1_6 cell_1_7 cell_1_8 cell_1_9) true))
(assert
 (and (distinct cell_2_1 cell_2_2 cell_2_3 cell_2_4 cell_2_5 cell_2_6 cell_2_7 cell_2_8 cell_2_9) true))
(assert
 (and (distinct cell_3_1 cell_3_2 cell_3_3 cell_3_4 cell_3_5 cell_3_6 cell_3_7 cell_3_8 cell_3_9) true))
(assert
 (and (distinct cell_4_1 cell_4_2 cell_4_3 cell_4_4 cell_4_5 cell_4_6 cell_4_7 cell_4_8 cell_4_9) true))
(assert
 (and (distinct cell_5_1 cell_5_2 cell_5_3 cell_5_4 cell_5_5 cell_5_6 cell_5_7 cell_5_8 cell_5_9) true))
(assert
 (and (distinct cell_6_1 cell_6_2 cell_6_3 cell_6_4 cell_6_5 cell_6_6 cell_6_7 cell_6_8 cell_6_9) true))
(assert
 (and (distinct cell_7_1 cell_7_2 cell_7_3 cell_7_4 cell_7_5 cell_7_6 cell_7_7 cell_7_8 cell_7_9) true))
(assert
 (and (distinct cell_8_1 cell_8_2 cell_8_3 cell_8_4 cell_8_5 cell_8_6 cell_8_7 cell_8_8 cell_8_9) true))
(assert
 (and (distinct cell_9_1 cell_9_2 cell_9_3 cell_9_4 cell_9_5 cell_9_6 cell_9_7 cell_9_8 cell_9_9) true))
(assert
 (and (distinct cell_1_1 cell_2_1 cell_3_1 cell_4_1 cell_5_1 cell_6_1 cell_7_1 cell_8_1 cell_9_1) true))
(assert
 (and (distinct cell_1_2 cell_2_2 cell_3_2 cell_4_2 cell_5_2 cell_6_2 cell_7_2 cell_8_2 cell_9_2) true))
(assert
 (and (distinct cell_1_3 cell_2_3 cell_3_3 cell_4_3 cell_5_3 cell_6_3 cell_7_3 cell_8_3 cell_9_3) true))
(assert
 (and (distinct cell_1_4 cell_2_4 cell_3_4 cell_4_4 cell_5_4 cell_6_4 cell_7_4 cell_8_4 cell_9_4) true))
(assert
 (and (distinct cell_1_5 cell_2_5 cell_3_5 cell_4_5 cell_5_5 cell_6_5 cell_7_5 cell_8_5 cell_9_5) true))
(assert
 (and (distinct cell_1_6 cell_2_6 cell_3_6 cell_4_6 cell_5_6 cell_6_6 cell_7_6 cell_8_6 cell_9_6) true))
(assert
 (and (distinct cell_1_7 cell_2_7 cell_3_7 cell_4_7 cell_5_7 cell_6_7 cell_7_7 cell_8_7 cell_9_7) true))
(assert
 (and (distinct cell_1_8 cell_2_8 cell_3_8 cell_4_8 cell_5_8 cell_6_8 cell_7_8 cell_8_8 cell_9_8) true))
(assert
 (and (distinct cell_1_9 cell_2_9 cell_3_9 cell_4_9 cell_5_9 cell_6_9 cell_7_9 cell_8_9 cell_9_9) true))
(assert
 (and (distinct cell_1_1 cell_1_2 cell_1_3 cell_2_1 cell_2_2 cell_2_3 cell_3_1 cell_3_2 cell_3_3) true))
(assert
 (and (distinct cell_1_4 cell_1_5 cell_1_6 cell_2_4 cell_2_5 cell_2_6 cell_3_4 cell_3_5 cell_3_6) true))
(assert
 (and (distinct cell_1_7 cell_1_8 cell_1_9 cell_2_7 cell_2_8 cell_2_9 cell_3_7 cell_3_8 cell_3_9) true))
(assert
 (and (distinct cell_4_1 cell_4_2 cell_4_3 cell_5_1 cell_5_2 cell_5_3 cell_6_1 cell_6_2 cell_6_3) true))
(assert
 (and (distinct cell_4_4 cell_4_5 cell_4_6 cell_5_4 cell_5_5 cell_5_6 cell_6_4 cell_6_5 cell_6_6) true))
(assert
 (and (distinct cell_4_7 cell_4_8 cell_4_9 cell_5_7 cell_5_8 cell_5_9 cell_6_7 cell_6_8 cell_6_9) true))
(assert
 (and (distinct cell_7_1 cell_7_2 cell_7_3 cell_8_1 cell_8_2 cell_8_3 cell_9_1 cell_9_2 cell_9_3) true))
(assert
 (and (distinct cell_7_4 cell_7_5 cell_7_6 cell_8_4 cell_8_5 cell_8_6 cell_9_4 cell_9_5 cell_9_6) true))
(assert
 (and (distinct cell_7_7 cell_7_8 cell_7_9 cell_8_7 cell_8_8 cell_8_9 cell_9_7 cell_9_8 cell_9_9) true))
(assert
 (let (($x1023 (and (distinct cell_5_9 cell_6_8 cell_7_7 cell_8_6) true)))
 (let (($x2242 (and (distinct cell_2_9 cell_3_8 cell_4_7 cell_5_6 cell_6_5 cell_7_4 cell_8_3 cell_9_2) true)))
 (let (($x2682 (and (distinct cell_1_8 cell_2_7 cell_3_6 cell_4_5 cell_5_4 cell_6_3 cell_7_2 cell_8_1) true)))
 (let (($x17 (and (distinct cell_1_5 cell_2_4 cell_3_3 cell_4_2) true)))
 (let (($x2501 (and (distinct cell_5_1 cell_6_2 cell_7_3 cell_8_4) true)))
 (let (($x2818 (and (distinct cell_2_1 cell_3_2 cell_4_3 cell_5_4 cell_6_5 cell_7_6 cell_8_7 cell_9_8) true)))
 (let (($x11 (and (distinct cell_1_2 cell_2_3 cell_3_4 cell_4_5 cell_5_6 cell_6_7 cell_7_8 cell_8_9) true)))
 (let (($x25 (and (distinct cell_1_5 cell_2_6 cell_3_7 cell_4_8) true)))
 (and $x25 $x11 $x2818 $x2501 $x17 $x2682 $x2242 $x1023))))))))))
(assert
 (= cell_9_7 2))
(check-sat)
